(set-info :smt-lib-version 2.6)
(set-logic QF_S)
(set-info :source |
Generated by: Hung-En Wang, Tzung-Lin Tsai, Chun-Han Lin, Fang Yu, and Jie-Hong R. Jiang
Generated on: 2019-02-28
Generator: Stranger
Application: Security analysis of string manipulating web applications
Target solver: CVC4, Norn, Z3-str2
Publication:
Hung-En Wang, Tzung-Lin Tsai, Chun-Han Lin, Fang Yu, Jie-Hong R. Jiang:
String Analysis via Automata Manipulation with Logic Circuit Representation. CAV (1) 2016: 241-260.
|)
(set-info :license "https://creativecommons.org/licenses/by/4.0/")
(set-info :category "industrial")
(set-info :status unknown)

(declare-fun sigmaStar_0 () String)
(declare-fun sigmaStar_1 () String)
(declare-fun sigmaStar_2 () String)
(declare-fun sigmaStar_3 () String)
(declare-fun sigmaStar_4 () String)
(declare-fun sigmaStar_5 () String)
(declare-fun sigmaStar_6 () String)
(declare-fun sigmaStar_7 () String)
(declare-fun sigmaStar_8 () String)
(declare-fun sigmaStar_9 () String)
(declare-fun sigmaStar_10 () String)
(declare-fun sigmaStar_11 () String)
(declare-fun sigmaStar_12 () String)
(declare-fun sigmaStar_13 () String)
(declare-fun sigmaStar_14 () String)
(declare-fun sigmaStar_15 () String)
(declare-fun sigmaStar_16 () String)
(declare-fun sigmaStar_17 () String)
(declare-fun sigmaStar_18 () String)
(declare-fun sigmaStar_19 () String)
(declare-fun sigmaStar_20 () String)
(declare-fun sigmaStar_21 () String)
(declare-fun sigmaStar_22 () String)
(declare-fun sigmaStar_23 () String)
(declare-fun sigmaStar_24 () String)
(declare-fun sigmaStar_25 () String)
(declare-fun sigmaStar_26 () String)
(declare-fun sigmaStar_27 () String)
(declare-fun literal_46 () String)
(declare-fun x_45 () String)
(declare-fun epsilon () String)
(declare-fun literal_37 () String)
(declare-fun literal_34 () String)
(declare-fun literal_35 () String)
(declare-fun literal_36 () String)
(declare-fun x_47 () String)
(declare-fun literal_28 () String)
(declare-fun x_48 () String)
(declare-fun literal_61 () String)
(declare-fun x_60 () String)
(declare-fun literal_30 () String)
(declare-fun literal_31 () String)
(declare-fun literal_32 () String)
(declare-fun literal_29 () String)
(declare-fun x_62 () String)
(declare-fun x_63 () String)
(declare-fun x_64 () String)
(declare-fun literal_82 () String)
(declare-fun x_81 () String)
(declare-fun x_83 () String)
(declare-fun x_85 () String)
(declare-fun x_86 () String)
(declare-fun sigmaStar_91 () String)
(declare-fun literal_106 () String)
(declare-fun x_105 () String)
(declare-fun literal_70 () String)
(declare-fun literal_71 () String)
(declare-fun literal_72 () String)
(declare-fun x_107 () String)
(declare-fun literal_103 () String)
(declare-fun x_108 () String)
(declare-fun literal_125 () String)
(declare-fun x_124 () String)
(declare-fun x_126 () String)
(declare-fun literal_122 () String)
(declare-fun x_127 () String)
(declare-fun x_135 () String)
(declare-fun literal_120 () String)
(declare-fun literal_97 () String)
(declare-fun literal_116 () String)
(declare-fun literal_112 () String)
(declare-fun literal_101 () String)
(declare-fun literal_102 () String)
(declare-fun literal_121 () String)
(declare-fun x_95 () String)
(declare-fun x_136 () String)
(declare-fun literal_140 () String)
(declare-fun x_137 () String)
(declare-fun literal_73 () String)
(declare-fun x_146 () String)
(declare-fun literal_153 () String)
(declare-fun x_159 () String)
(declare-fun literal_155 () String)
(declare-fun x_150 () String)
(declare-fun x_164 () String)
(declare-fun literal_158 () String)
(declare-fun x_152 () String)
(declare-fun x_168 () String)
(declare-fun literal_162 () String)
(declare-fun x_171 () String)
(declare-fun literal_170 () String)
(declare-fun x_172 () String)
(declare-fun sigmaStar_176 () String)
(declare-fun literal_177 () String)
(declare-fun x_196 () String)
(declare-fun literal_181 () String)
(declare-fun x_165 () String)
(declare-fun x_197 () String)
(declare-fun literal_185 () String)
(declare-fun x_201 () String)
(declare-fun literal_191 () String)
(declare-fun x_173 () String)
(declare-fun x_202 () String)
(declare-fun literal_204 () String)
(declare-fun x_194 () String)
(declare-fun x_215 () String)
(declare-fun x_216 () String)
(declare-fun literal_207 () String)
(declare-fun x_218 () String)
(declare-fun literal_198 () String)
(declare-fun x_182 () String)
(declare-fun x_219 () String)
(declare-fun literal_209 () String)
(declare-fun x_200 () String)
(declare-fun x_220 () String)
(declare-fun x_139 () String)
(declare-fun x_221 () String)
(declare-fun literal_213 () String)
(declare-fun x_224 () String)
(declare-fun literal_203 () String)
(declare-fun x_192 () String)
(declare-fun x_225 () String)
(declare-fun literal_227 () String)
(declare-fun x_214 () String)
(declare-fun x_246 () String)
(declare-fun literal_228 () String)
(declare-fun x_247 () String)
(declare-fun literal_229 () String)
(declare-fun x_195 () String)
(declare-fun x_248 () String)
(declare-fun literal_230 () String)
(declare-fun x_249 () String)
(declare-fun x_206 () String)
(declare-fun x_252 () String)
(declare-fun literal_234 () String)
(declare-fun x_253 () String)
(declare-fun literal_236 () String)
(declare-fun x_255 () String)
(declare-fun literal_237 () String)
(declare-fun x_210 () String)
(declare-fun x_256 () String)
(declare-fun literal_238 () String)
(declare-fun x_257 () String)
(declare-fun x_212 () String)
(declare-fun x_261 () String)
(declare-fun literal_244 () String)
(declare-fun x_262 () String)
(declare-fun literal_265 () String)
(declare-fun x_272 () String)
(declare-fun x_273 () String)
(declare-fun literal_266 () String)
(declare-fun x_274 () String)
(declare-fun literal_250 () String)
(declare-fun x_275 () String)
(declare-fun literal_251 () String)
(declare-fun x_232 () String)
(declare-fun x_276 () String)
(declare-fun literal_267 () String)
(declare-fun x_277 () String)
(declare-fun literal_254 () String)
(declare-fun x_278 () String)
(declare-fun x_167 () String)
(declare-fun x_279 () String)
(declare-fun literal_268 () String)
(declare-fun x_280 () String)
(declare-fun literal_258 () String)
(declare-fun x_281 () String)
(declare-fun literal_260 () String)
(declare-fun x_242 () String)
(declare-fun x_283 () String)
(declare-fun literal_271 () String)
(declare-fun x_284 () String)
(declare-fun literal_263 () String)
(declare-fun x_285 () String)
(declare-fun x_264 () String)
(declare-fun x_290 () String)
(declare-fun literal_286 () String)
(declare-fun x_291 () String)
(declare-fun x_292 () String)
(declare-fun literal_287 () String)
(declare-fun x_293 () String)
(declare-fun x_294 () String)
(declare-fun literal_288 () String)
(declare-fun x_295 () String)
(declare-fun x_296 () String)
(declare-fun literal_282 () String)
(declare-fun x_269 () String)
(declare-fun x_297 () String)
(declare-fun literal_289 () String)
(declare-fun x_298 () String)
(declare-fun x_299 () String)
(declare-fun literal_300 () String)
(declare-fun x_302 () String)
(declare-fun x_303 () String)
(declare-fun x_304 () String)
(declare-fun x_305 () String)
(declare-fun literal_301 () String)
(declare-fun x_306 () String)
(declare-fun x_307 () String)
(declare-fun literal_222 () String)
(declare-fun x_312 () String)
(declare-fun literal_308 () String)
(declare-fun x_313 () String)
(declare-fun literal_309 () String)
(declare-fun x_314 () String)
(declare-fun literal_310 () String)
(declare-fun x_315 () String)
(declare-fun x_316 () String)
(declare-fun literal_311 () String)
(declare-fun x_317 () String)
(declare-fun x_323 () String)
(assert (= literal_46 "\u{26}\u{61}\u{6d}\u{70}\u{3b}\u{63}\u{61}\u{6c}\u{5f}\u{64}\u{3d}"))
(assert (= epsilon ""))
(assert (= literal_37 "\u{30}"))
(assert (= literal_34 "\u{30}"))
(assert (= literal_35 "\u{30}"))
(assert (= literal_36 "\u{30}"))
(assert (or (= x_45 epsilon) (= x_45 literal_37) (= x_45 literal_34) (= x_45 literal_35) (= x_45 literal_36)))
(assert (= x_47 (str.++ literal_46 x_45)))
(assert (= literal_28 ""))
(assert (= x_48 (str.++ literal_28 x_47)))
(assert (= literal_61 "\u{26}\u{61}\u{6d}\u{70}\u{3b}\u{63}\u{61}\u{6c}\u{5f}\u{6d}\u{3d}"))
(assert (= literal_30 ""))
(assert (= literal_31 ""))
(assert (= literal_32 ""))
(assert (= literal_29 ""))
(assert (or (= x_60 epsilon) (= x_60 literal_30) (= x_60 literal_31) (= x_60 literal_32) (= x_60 literal_29)))
(assert (= x_62 (str.++ literal_61 x_60)))
(assert (or (= x_63 literal_28) (= x_63 x_48)))
(assert (= x_64 (str.++ x_63 x_62)))
(assert (= literal_82 "\u{26}\u{61}\u{6d}\u{70}\u{3b}\u{63}\u{61}\u{6c}\u{5f}\u{79}\u{3d}"))
(assert (or (= x_81 epsilon) (= x_81 literal_30) (= x_81 literal_31) (= x_81 literal_32) (= x_81 literal_29)))
(assert (= x_83 (str.++ literal_82 x_81)))
(assert (or (= x_85 x_64) (= x_85 literal_28) (= x_85 x_48)))
(assert (= x_86 (str.++ x_85 x_83)))
(assert (= literal_106 "\u{76}\u{69}\u{65}\u{77}\u{2e}\u{70}\u{68}\u{70}\u{3f}\u{69}\u{64}\u{3d}"))
(assert (= literal_70 ""))
(assert (= literal_71 ""))
(assert (= literal_72 ""))
(assert (or (= x_105 literal_70) (= x_105 literal_71) (= x_105 literal_72)))
(assert (= x_107 (str.++ literal_106 x_105)))
(assert (= literal_103 "\u{26}\u{61}\u{6d}\u{70}\u{3b}"))
(assert (= x_108 (str.++ x_107 literal_103)))
(assert (= literal_125 "\u{76}\u{69}\u{65}\u{77}\u{2e}\u{70}\u{68}\u{70}\u{3f}\u{69}\u{64}\u{3d}"))
(assert (or (= x_124 literal_70) (= x_124 literal_71) (= x_124 literal_72)))
(assert (= x_126 (str.++ literal_125 x_124)))
(assert (= literal_122 "\u{26}\u{61}\u{6d}\u{70}\u{3b}"))
(assert (= x_127 (str.++ x_126 literal_122)))
(assert (= literal_120 "\u{2f}\u{63}\u{61}\u{6c}\u{65}\u{6e}\u{64}\u{61}\u{72}\u{2f}\u{76}\u{69}\u{65}\u{77}\u{2e}\u{70}\u{68}\u{70}\u{3f}\u{76}\u{69}\u{65}\u{77}\u{3d}\u{64}\u{61}\u{79}\u{26}\u{61}\u{6d}\u{70}\u{3b}"))
(assert (= literal_97 "\u{2f}\u{63}\u{61}\u{6c}\u{65}\u{6e}\u{64}\u{61}\u{72}\u{2f}\u{76}\u{69}\u{65}\u{77}\u{2e}\u{70}\u{68}\u{70}\u{3f}\u{76}\u{69}\u{65}\u{77}\u{3d}\u{75}\u{70}\u{63}\u{6f}\u{6d}\u{69}\u{6e}\u{67}\u{26}\u{61}\u{6d}\u{70}\u{3b}"))
(assert (= literal_116 "\u{2f}\u{63}\u{61}\u{6c}\u{65}\u{6e}\u{64}\u{61}\u{72}\u{2f}\u{76}\u{69}\u{65}\u{77}\u{2e}\u{70}\u{68}\u{70}\u{3f}\u{76}\u{69}\u{65}\u{77}\u{3d}\u{64}\u{61}\u{79}\u{26}\u{61}\u{6d}\u{70}\u{3b}"))
(assert (= literal_112 "\u{2f}\u{63}\u{61}\u{6c}\u{65}\u{6e}\u{64}\u{61}\u{72}\u{2f}\u{76}\u{69}\u{65}\u{77}\u{2e}\u{70}\u{68}\u{70}\u{3f}\u{76}\u{69}\u{65}\u{77}\u{3d}\u{64}\u{61}\u{79}\u{26}\u{61}\u{6d}\u{70}\u{3b}"))
(assert (= literal_101 "\u{2f}\u{63}\u{61}\u{6c}\u{65}\u{6e}\u{64}\u{61}\u{72}\u{2f}\u{76}\u{69}\u{65}\u{77}\u{2e}\u{70}\u{68}\u{70}\u{3f}\u{76}\u{69}\u{65}\u{77}\u{3d}\u{64}\u{61}\u{79}\u{26}\u{61}\u{6d}\u{70}\u{3b}"))
(assert (= literal_102 "\u{69}\u{6e}\u{64}\u{65}\u{78}\u{2e}\u{70}\u{68}\u{70}\u{3f}"))
(assert (= literal_121 "\u{69}\u{6e}\u{64}\u{65}\u{78}\u{2e}\u{70}\u{68}\u{70}\u{3f}"))
(assert (or (= x_135 literal_120) (= x_135 literal_97) (= x_135 x_108) (= x_135 literal_116) (= x_135 x_127) (= x_135 literal_112) (= x_135 literal_101) (= x_135 literal_102) (= x_135 literal_121)))
(assert (or (= x_95 x_64) (= x_95 x_86) (= x_95 literal_28) (= x_95 x_48) (= x_95 sigmaStar_91)))
(assert (= x_136 (str.++ x_135 x_95)))
(assert (= literal_140 "\u{3c}\u{61}\u{20}\u{68}\u{72}\u{65}\u{66}\u{3d}\u{22}"))
(assert (= literal_73 ""))
(assert (or (= x_137 literal_73) (= x_137 x_136)))
(assert (= x_146 (str.++ literal_140 x_137)))
(assert (= literal_153 "\u{22}\u{3e}"))
(assert (= x_159 (str.++ x_146 literal_153)))
(assert (= literal_155 "\u{3c}\u{73}\u{70}\u{61}\u{6e}\u{20}\u{63}\u{6c}\u{61}\u{73}\u{73}\u{3d}\u{22}\u{70}\u{72}\u{65}\u{76}\u{69}\u{6f}\u{75}\u{73}\u{22}\u{3e}\u{3c}\u{61}\u{20}\u{68}\u{72}\u{65}\u{66}\u{3d}\u{22}"))
(assert (or (= x_150 literal_73) (= x_150 x_136)))
(assert (= x_164 (str.++ literal_155 x_150)))
(assert (= literal_158 "\u{3c}\u{73}\u{70}\u{61}\u{6e}\u{20}\u{63}\u{6c}\u{61}\u{73}\u{73}\u{3d}\u{22}\u{70}\u{72}\u{65}\u{76}\u{69}\u{6f}\u{75}\u{73}\u{22}\u{3e}\u{3c}\u{61}\u{20}\u{68}\u{72}\u{65}\u{66}\u{3d}\u{22}"))
(assert (or (= x_152 literal_73) (= x_152 x_136)))
(assert (= x_168 (str.++ literal_158 x_152)))
(assert (= literal_162 "\u{3c}\u{69}\u{6d}\u{67}\u{20}\u{73}\u{72}\u{63}\u{3d}\u{22}\u{2f}\u{61}\u{2f}\u{72}\u{5f}\u{70}\u{72}\u{65}\u{76}\u{69}\u{6f}\u{75}\u{73}\u{2e}\u{67}\u{69}\u{66}\u{22}\u{20}\u{61}\u{6c}\u{74}\u{3d}\u{22}\u{6d}\u{6f}\u{6e}\u{74}\u{68}\u{70}\u{72}\u{65}\u{76}\u{22}\u{20}\u{63}\u{6c}\u{61}\u{73}\u{73}\u{3d}\u{22}\u{72}\u{65}\u{73}\u{69}\u{7a}\u{65}\u{22}\u{20}\u{2f}\u{3e}"))
(assert (= x_171 (str.++ x_159 literal_162)))
(assert (= literal_170 "\u{3c}\u{2f}\u{61}\u{3e}"))
(assert (= x_172 (str.++ x_171 literal_170)))
(assert (= literal_177 "\u{22}\u{3e}\u{26}\u{6c}\u{74}\u{3b}\u{20}"))
(assert (= x_196 (str.++ x_164 literal_177)))
(assert (= literal_181 "\u{3c}\u{73}\u{70}\u{61}\u{6e}\u{20}\u{63}\u{6c}\u{61}\u{73}\u{73}\u{3d}\u{22}\u{68}\u{69}\u{64}\u{65}\u{22}\u{3e}\u{20}\u{7c}\u{20}\u{3c}\u{2f}\u{73}\u{70}\u{61}\u{6e}\u{3e}\u{3c}\u{73}\u{70}\u{61}\u{6e}\u{20}\u{63}\u{6c}\u{61}\u{73}\u{73}\u{3d}\u{22}\u{63}\u{75}\u{72}\u{72}\u{65}\u{6e}\u{74}\u{22}\u{3e}\u{3c}\u{61}\u{20}\u{68}\u{72}\u{65}\u{66}\u{3d}\u{22}"))
(assert (or (= x_165 literal_73) (= x_165 x_136)))
(assert (= x_197 (str.++ literal_181 x_165)))
(assert (= literal_185 "\u{22}\u{3e}\u{26}\u{6c}\u{74}\u{3b}\u{20}"))
(assert (= x_201 (str.++ x_168 literal_185)))
(assert (= literal_191 "\u{3c}\u{73}\u{70}\u{61}\u{6e}\u{20}\u{63}\u{6c}\u{61}\u{73}\u{73}\u{3d}\u{22}\u{68}\u{69}\u{64}\u{65}\u{22}\u{3e}\u{20}\u{7c}\u{20}\u{3c}\u{2f}\u{73}\u{70}\u{61}\u{6e}\u{3e}\u{3c}\u{73}\u{70}\u{61}\u{6e}\u{20}\u{63}\u{6c}\u{61}\u{73}\u{73}\u{3d}\u{22}\u{63}\u{75}\u{72}\u{72}\u{65}\u{6e}\u{74}\u{22}\u{3e}\u{3c}\u{61}\u{20}\u{68}\u{72}\u{65}\u{66}\u{3d}\u{22}"))
(assert (or (= x_173 literal_73) (= x_173 x_136)))
(assert (= x_202 (str.++ literal_191 x_173)))
(assert (= literal_204 "\u{3c}\u{73}\u{70}\u{61}\u{6e}\u{20}\u{63}\u{6c}\u{61}\u{73}\u{73}\u{3d}\u{22}\u{68}\u{69}\u{64}\u{65}\u{22}\u{3e}\u{20}\u{7c}\u{20}\u{3c}\u{2f}\u{73}\u{70}\u{61}\u{6e}\u{3e}\u{3c}\u{73}\u{70}\u{61}\u{6e}\u{20}\u{63}\u{6c}\u{61}\u{73}\u{73}\u{3d}\u{22}\u{6e}\u{65}\u{78}\u{74}\u{22}\u{3e}\u{3c}\u{61}\u{20}\u{68}\u{72}\u{65}\u{66}\u{3d}\u{22}"))
(assert (or (= x_194 literal_73) (= x_194 x_136)))
(assert (= x_215 (str.++ literal_204 x_194)))
(assert (= x_216 (str.++ x_196 sigmaStar_176)))
(assert (= literal_207 "\u{22}\u{3e}"))
(assert (= x_218 (str.++ x_197 literal_207)))
(assert (= literal_198 "\u{3c}\u{73}\u{70}\u{61}\u{6e}\u{20}\u{63}\u{6c}\u{61}\u{73}\u{73}\u{3d}\u{22}\u{70}\u{72}\u{65}\u{76}\u{69}\u{6f}\u{75}\u{73}\u{22}\u{20}\u{74}\u{69}\u{74}\u{6c}\u{65}\u{3d}\u{22}\u{6d}\u{6f}\u{6e}\u{74}\u{68}\u{70}\u{72}\u{65}\u{76}\u{22}\u{3e}"))
(assert (or (= x_182 literal_162) (= x_182 x_172)))
(assert (= x_219 (str.++ literal_198 x_182)))
(assert (= literal_209 "\u{3c}\u{73}\u{70}\u{61}\u{6e}\u{20}\u{63}\u{6c}\u{61}\u{73}\u{73}\u{3d}\u{22}\u{68}\u{69}\u{64}\u{65}\u{22}\u{3e}\u{20}\u{7c}\u{20}\u{3c}\u{2f}\u{73}\u{70}\u{61}\u{6e}\u{3e}\u{3c}\u{73}\u{70}\u{61}\u{6e}\u{20}\u{63}\u{6c}\u{61}\u{73}\u{73}\u{3d}\u{22}\u{6e}\u{65}\u{78}\u{74}\u{22}\u{3e}\u{3c}\u{61}\u{20}\u{68}\u{72}\u{65}\u{66}\u{3d}\u{22}"))
(assert (or (= x_200 literal_73) (= x_200 x_136)))
(assert (= x_220 (str.++ literal_209 x_200)))
(assert (or (= x_139 literal_30) (= x_139 literal_29)))
(assert (= x_221 (str.++ x_201 x_139)))
(assert (= literal_213 "\u{22}\u{3e}"))
(assert (= x_224 (str.++ x_202 literal_213)))
(assert (= literal_203 "\u{3c}\u{73}\u{70}\u{61}\u{6e}\u{20}\u{63}\u{6c}\u{61}\u{73}\u{73}\u{3d}\u{22}\u{70}\u{72}\u{65}\u{76}\u{69}\u{6f}\u{75}\u{73}\u{22}\u{20}\u{74}\u{69}\u{74}\u{6c}\u{65}\u{3d}\u{22}\u{6d}\u{6f}\u{6e}\u{74}\u{68}\u{70}\u{72}\u{65}\u{76}\u{22}\u{3e}"))
(assert (or (= x_192 literal_162) (= x_192 x_172)))
(assert (= x_225 (str.++ literal_203 x_192)))
(assert (= literal_227 "\u{3c}\u{64}\u{69}\u{76}\u{20}\u{73}\u{74}\u{79}\u{6c}\u{65}\u{3d}\u{22}\u{74}\u{65}\u{78}\u{74}\u{2d}\u{61}\u{6c}\u{69}\u{67}\u{6e}\u{3a}\u{20}\u{63}\u{65}\u{6e}\u{74}\u{65}\u{72}\u{3b}\u{22}\u{3e}\u{3c}\u{61}\u{20}\u{68}\u{72}\u{65}\u{66}\u{3d}\u{22}"))
(assert (or (= x_214 literal_73) (= x_214 x_136)))
(assert (= x_246 (str.++ literal_227 x_214)))
(assert (= literal_228 "\u{22}\u{3e}"))
(assert (= x_247 (str.++ x_215 literal_228)))
(assert (= literal_229 "\u{3c}\u{73}\u{70}\u{61}\u{6e}\u{20}\u{63}\u{6c}\u{61}\u{73}\u{73}\u{3d}\u{22}\u{68}\u{69}\u{64}\u{65}\u{22}\u{3e}\u{20}\u{7c}\u{20}\u{3c}\u{2f}\u{73}\u{70}\u{61}\u{6e}\u{3e}\u{3c}\u{73}\u{70}\u{61}\u{6e}\u{20}\u{63}\u{6c}\u{61}\u{73}\u{73}\u{3d}\u{22}\u{63}\u{75}\u{72}\u{72}\u{65}\u{6e}\u{74}\u{22}\u{3e}"))
(assert (or (= x_195 epsilon) (= x_195 literal_31) (= x_195 literal_32)))
(assert (= x_248 (str.++ literal_229 x_195)))
(assert (= literal_230 "\u{3c}\u{2f}\u{61}\u{3e}\u{3c}\u{2f}\u{73}\u{70}\u{61}\u{6e}\u{3e}\u{5c}\u{6e}"))
(assert (= x_249 (str.++ x_216 literal_230)))
(assert (or (= x_206 epsilon) (= x_206 literal_31) (= x_206 literal_32)))
(assert (= x_252 (str.++ x_218 x_206)))
(assert (= literal_234 "\u{3c}\u{2f}\u{73}\u{70}\u{61}\u{6e}\u{3e}\u{5c}\u{6e}"))
(assert (= x_253 (str.++ x_219 literal_234)))
(assert (= literal_236 "\u{22}\u{3e}"))
(assert (= x_255 (str.++ x_220 literal_236)))
(assert (= literal_237 "\u{3c}\u{73}\u{70}\u{61}\u{6e}\u{20}\u{63}\u{6c}\u{61}\u{73}\u{73}\u{3d}\u{22}\u{68}\u{69}\u{64}\u{65}\u{22}\u{3e}\u{20}\u{7c}\u{20}\u{3c}\u{2f}\u{73}\u{70}\u{61}\u{6e}\u{3e}\u{3c}\u{73}\u{70}\u{61}\u{6e}\u{20}\u{63}\u{6c}\u{61}\u{73}\u{73}\u{3d}\u{22}\u{63}\u{75}\u{72}\u{72}\u{65}\u{6e}\u{74}\u{22}\u{3e}"))
(assert (or (= x_210 epsilon) (= x_210 literal_31) (= x_210 literal_32)))
(assert (= x_256 (str.++ literal_237 x_210)))
(assert (= literal_238 "\u{3c}\u{2f}\u{61}\u{3e}\u{3c}\u{2f}\u{73}\u{70}\u{61}\u{6e}\u{3e}"))
(assert (= x_257 (str.++ x_221 literal_238)))
(assert (or (= x_212 epsilon) (= x_212 literal_31) (= x_212 literal_32)))
(assert (= x_261 (str.++ x_224 x_212)))
(assert (= literal_244 "\u{3c}\u{2f}\u{73}\u{70}\u{61}\u{6e}\u{3e}\u{5c}\u{6e}"))
(assert (= x_262 (str.++ x_225 literal_244)))
(assert (= literal_265 "\u{22}\u{3e}"))
(assert (= x_272 (str.++ x_246 literal_265)))
(assert (= x_273 (str.++ x_247 sigmaStar_176)))
(assert (= literal_266 "\u{3c}\u{2f}\u{73}\u{70}\u{61}\u{6e}\u{3e}"))
(assert (= x_274 (str.++ x_248 literal_266)))
(assert (= literal_250 "\u{3c}\u{64}\u{69}\u{76}\u{20}\u{63}\u{6c}\u{61}\u{73}\u{73}\u{3d}\u{22}\u{63}\u{61}\u{6c}\u{65}\u{6e}\u{64}\u{61}\u{72}\u{2d}\u{63}\u{6f}\u{6e}\u{74}\u{72}\u{6f}\u{6c}\u{73}\u{22}\u{3e}"))
(assert (= x_275 (str.++ literal_250 x_249)))
(assert (= literal_251 "\u{3c}\u{73}\u{70}\u{61}\u{6e}\u{20}\u{63}\u{6c}\u{61}\u{73}\u{73}\u{3d}\u{22}\u{68}\u{69}\u{64}\u{65}\u{22}\u{3e}\u{20}\u{7c}\u{20}\u{3c}\u{2f}\u{73}\u{70}\u{61}\u{6e}\u{3e}\u{3c}\u{73}\u{70}\u{61}\u{6e}\u{20}\u{63}\u{6c}\u{61}\u{73}\u{73}\u{3d}\u{22}\u{6e}\u{65}\u{78}\u{74}\u{22}\u{20}\u{74}\u{69}\u{74}\u{6c}\u{65}\u{3d}\u{22}\u{6d}\u{6f}\u{6e}\u{74}\u{68}\u{6e}\u{65}\u{78}\u{74}\u{22}\u{3e}"))
(assert (or (= x_232 literal_162) (= x_232 x_172)))
(assert (= x_276 (str.++ literal_251 x_232)))
(assert (= literal_267 "\u{3c}\u{2f}\u{61}\u{3e}\u{3c}\u{2f}\u{73}\u{70}\u{61}\u{6e}\u{3e}"))
(assert (= x_277 (str.++ x_252 literal_267)))
(assert (= literal_254 "\u{3c}\u{64}\u{69}\u{76}\u{20}\u{63}\u{6c}\u{61}\u{73}\u{73}\u{3d}\u{22}\u{63}\u{61}\u{6c}\u{65}\u{6e}\u{64}\u{61}\u{72}\u{2d}\u{63}\u{6f}\u{6e}\u{74}\u{72}\u{6f}\u{6c}\u{73}\u{22}\u{3e}"))
(assert (= x_278 (str.++ literal_254 x_253)))
(assert (or (= x_167 literal_31) (= x_167 literal_32)))
(assert (= x_279 (str.++ x_255 x_167)))
(assert (= literal_268 "\u{3c}\u{2f}\u{73}\u{70}\u{61}\u{6e}\u{3e}\u{5c}\u{6e}"))
(assert (= x_280 (str.++ x_256 literal_268)))
(assert (= literal_258 "\u{3c}\u{64}\u{69}\u{76}\u{20}\u{63}\u{6c}\u{61}\u{73}\u{73}\u{3d}\u{22}\u{63}\u{61}\u{6c}\u{65}\u{6e}\u{64}\u{61}\u{72}\u{2d}\u{63}\u{6f}\u{6e}\u{74}\u{72}\u{6f}\u{6c}\u{73}\u{22}\u{3e}"))
(assert (= x_281 (str.++ literal_258 x_257)))
(assert (= literal_260 "\u{3c}\u{73}\u{70}\u{61}\u{6e}\u{20}\u{63}\u{6c}\u{61}\u{73}\u{73}\u{3d}\u{22}\u{68}\u{69}\u{64}\u{65}\u{22}\u{3e}\u{20}\u{7c}\u{20}\u{3c}\u{2f}\u{73}\u{70}\u{61}\u{6e}\u{3e}\u{3c}\u{73}\u{70}\u{61}\u{6e}\u{20}\u{63}\u{6c}\u{61}\u{73}\u{73}\u{3d}\u{22}\u{6e}\u{65}\u{78}\u{74}\u{22}\u{20}\u{74}\u{69}\u{74}\u{6c}\u{65}\u{3d}\u{22}\u{6d}\u{6f}\u{6e}\u{74}\u{68}\u{6e}\u{65}\u{78}\u{74}\u{22}\u{3e}"))
(assert (or (= x_242 literal_162) (= x_242 x_172)))
(assert (= x_283 (str.++ literal_260 x_242)))
(assert (= literal_271 "\u{3c}\u{2f}\u{61}\u{3e}\u{3c}\u{2f}\u{73}\u{70}\u{61}\u{6e}\u{3e}"))
(assert (= x_284 (str.++ x_261 literal_271)))
(assert (= literal_263 "\u{3c}\u{64}\u{69}\u{76}\u{20}\u{63}\u{6c}\u{61}\u{73}\u{73}\u{3d}\u{22}\u{63}\u{61}\u{6c}\u{65}\u{6e}\u{64}\u{61}\u{72}\u{2d}\u{63}\u{6f}\u{6e}\u{74}\u{72}\u{6f}\u{6c}\u{73}\u{22}\u{3e}"))
(assert (= x_285 (str.++ literal_263 x_262)))
(assert (or (= x_264 epsilon) (= x_264 literal_31) (= x_264 literal_32)))
(assert (= x_290 (str.++ x_272 x_264)))
(assert (= literal_286 "\u{20}\u{26}\u{67}\u{74}\u{3b}\u{3c}\u{2f}\u{61}\u{3e}\u{3c}\u{2f}\u{73}\u{70}\u{61}\u{6e}\u{3e}\u{5c}\u{6e}"))
(assert (= x_291 (str.++ x_273 literal_286)))
(assert (= x_292 (str.++ x_275 x_274)))
(assert (= literal_287 "\u{3c}\u{2f}\u{73}\u{70}\u{61}\u{6e}\u{3e}\u{5c}\u{6e}"))
(assert (= x_293 (str.++ x_276 literal_287)))
(assert (= x_294 (str.++ x_278 x_277)))
(assert (= literal_288 "\u{20}\u{26}\u{67}\u{74}\u{3b}\u{3c}\u{2f}\u{61}\u{3e}\u{3c}\u{2f}\u{73}\u{70}\u{61}\u{6e}\u{3e}\u{5c}\u{6e}"))
(assert (= x_295 (str.++ x_279 literal_288)))
(assert (= x_296 (str.++ x_281 x_280)))
(assert (= literal_282 "\u{3c}\u{64}\u{69}\u{76}\u{20}\u{73}\u{74}\u{79}\u{6c}\u{65}\u{3d}\u{22}\u{74}\u{65}\u{78}\u{74}\u{2d}\u{61}\u{6c}\u{69}\u{67}\u{6e}\u{3a}\u{20}\u{63}\u{65}\u{6e}\u{74}\u{65}\u{72}\u{3b}\u{22}\u{3e}\u{3c}\u{61}\u{20}\u{68}\u{72}\u{65}\u{66}\u{3d}\u{22}\u{2f}\u{63}\u{61}\u{6c}\u{65}\u{6e}\u{64}\u{61}\u{72}\u{2f}\u{76}\u{69}\u{65}\u{77}\u{2e}\u{70}\u{68}\u{70}\u{3f}\u{76}\u{69}\u{65}\u{77}\u{3d}\u{75}\u{70}\u{63}\u{6f}\u{6d}\u{69}\u{6e}\u{67}\u{22}\u{3e}"))
(assert (or (= x_269 epsilon) (= x_269 literal_31) (= x_269 literal_32)))
(assert (= x_297 (str.++ literal_282 x_269)))
(assert (= literal_289 "\u{3c}\u{2f}\u{73}\u{70}\u{61}\u{6e}\u{3e}\u{5c}\u{6e}"))
(assert (= x_298 (str.++ x_283 literal_289)))
(assert (= x_299 (str.++ x_285 x_284)))
(assert (= literal_300 "\u{3c}\u{2f}\u{61}\u{3e}\u{3c}\u{2f}\u{64}\u{69}\u{76}\u{3e}\u{5c}\u{6e}"))
(assert (= x_302 (str.++ x_290 literal_300)))
(assert (= x_303 (str.++ x_292 x_291)))
(assert (= x_304 (str.++ x_294 x_293)))
(assert (= x_305 (str.++ x_296 x_295)))
(assert (= literal_301 "\u{3c}\u{2f}\u{61}\u{3e}\u{3c}\u{2f}\u{64}\u{69}\u{76}\u{3e}\u{5c}\u{6e}"))
(assert (= x_306 (str.++ x_297 literal_301)))
(assert (= x_307 (str.++ x_299 x_298)))
(assert (= literal_222 ""))
(assert (= x_312 (str.++ literal_222 x_302)))
(assert (= literal_308 "\u{3c}\u{73}\u{70}\u{61}\u{6e}\u{20}\u{63}\u{6c}\u{61}\u{73}\u{73}\u{3d}\u{22}\u{63}\u{6c}\u{65}\u{61}\u{72}\u{65}\u{72}\u{22}\u{3e}\u{3c}\u{2f}\u{73}\u{70}\u{61}\u{6e}\u{3e}\u{3c}\u{2f}\u{64}\u{69}\u{76}\u{3e}\u{5c}\u{6e}"))
(assert (= x_313 (str.++ x_303 literal_308)))
(assert (= literal_309 "\u{3c}\u{73}\u{70}\u{61}\u{6e}\u{20}\u{63}\u{6c}\u{61}\u{73}\u{73}\u{3d}\u{22}\u{63}\u{6c}\u{65}\u{61}\u{72}\u{65}\u{72}\u{22}\u{3e}\u{3c}\u{2f}\u{73}\u{70}\u{61}\u{6e}\u{3e}\u{3c}\u{2f}\u{64}\u{69}\u{76}\u{3e}\u{5c}\u{6e}"))
(assert (= x_314 (str.++ x_304 literal_309)))
(assert (= literal_310 "\u{3c}\u{73}\u{70}\u{61}\u{6e}\u{20}\u{63}\u{6c}\u{61}\u{73}\u{73}\u{3d}\u{22}\u{63}\u{6c}\u{65}\u{61}\u{72}\u{65}\u{72}\u{22}\u{3e}\u{3c}\u{2f}\u{73}\u{70}\u{61}\u{6e}\u{3e}\u{3c}\u{2f}\u{64}\u{69}\u{76}\u{3e}\u{5c}\u{6e}"))
(assert (= x_315 (str.++ x_305 literal_310)))
(assert (= x_316 (str.++ literal_222 x_306)))
(assert (= literal_311 "\u{3c}\u{73}\u{70}\u{61}\u{6e}\u{20}\u{63}\u{6c}\u{61}\u{73}\u{73}\u{3d}\u{22}\u{63}\u{6c}\u{65}\u{61}\u{72}\u{65}\u{72}\u{22}\u{3e}\u{3c}\u{2f}\u{73}\u{70}\u{61}\u{6e}\u{3e}\u{3c}\u{2f}\u{64}\u{69}\u{76}\u{3e}\u{5c}\u{6e}"))
(assert (= x_317 (str.++ x_307 literal_311)))
(assert (or (= x_323 x_317) (= x_323 x_315) (= x_323 x_316) (= x_323 x_313) (= x_323 x_314) (= x_323 x_312) (= x_323 literal_222)))
(assert (str.in_re x_323 (re.++ (re.* re.allchar) (re.++ (str.to_re "\u{5c}\u{3c}\u{53}\u{43}\u{52}\u{49}\u{50}\u{54}") (re.* re.allchar)))))
(check-sat)
(exit)
